experiments/eusolverbv/0/DirectTrainGenes/1001111110100010011011011010100101110101001/208_.sl

(set-logic BV)

(define-fun shr1 ((x (BitVec 64))) (BitVec 64) (bvlshr x #x0000000000000001))
(define-fun shr4 ((x (BitVec 64))) (BitVec 64) (bvlshr x #x0000000000000004))
(define-fun shr16 ((x (BitVec 64))) (BitVec 64) (bvlshr x #x0000000000000010))
(define-fun shl1 ((x (BitVec 64))) (BitVec 64) (bvshl x #x0000000000000001))
(define-fun if0 ((x (BitVec 64)) (y (BitVec 64)) (z (BitVec 64))) (BitVec 64) (ite (= x #x0000000000000001) y z))
(define-fun func23  ((A (BitVec 64)) (B (BitVec 64)) (C (BitVec 64)) (D (BitVec 64)) ) (BitVec 64) (bvand (bvlshr (bvlshr C  D ) B ) A ))
(define-fun func24  ((A (BitVec 64)) (B (BitVec 64)) (C (BitVec 64)) ) (BitVec 64) (bvand (bvlshr B  C ) A ))
(define-fun func25  ((A (BitVec 64)) (B (BitVec 64)) ) (BitVec 64) (bvand (bvlshr B  #x0000000000000001 ) A ))
(define-fun func26  ((A (BitVec 64)) (B (BitVec 64)) ) (BitVec 64) (bvand (bvlshr B  #x0000000000000010 ) A ))
(define-fun func27  ((A (BitVec 64)) (B (BitVec 64)) ) (BitVec 64) (bvand (bvlshr B  #x0000000000000004 ) A ))
(define-fun func28  ((A (BitVec 64)) (B (BitVec 64)) ) (BitVec 64) (bvand (bvlshr A  B ) #x0000000000000001 ))
(define-fun func29  ((A (BitVec 64)) ) (BitVec 64) (bvand A  #x0000000000000001 ))
(define-fun func30  ((A (BitVec 64)) (B (BitVec 64)) (C (BitVec 64)) (D (BitVec 64)) ) (BitVec 64) (bvlshr (bvlshr (bvlshr C  D ) B ) A ))
(define-fun func31  ((A (BitVec 64)) (B (BitVec 64)) (C (BitVec 64)) ) (BitVec 64) (bvlshr (bvlshr (bvlshr B  C ) A ) #x0000000000000004 ))
(define-fun func32  ((A (BitVec 64)) (B (BitVec 64)) (C (BitVec 64)) ) (BitVec 64) (bvlshr (bvlshr (bvlshr C  #x0000000000000010 ) B ) A ))
(define-fun func33  ((A (BitVec 64)) (B (BitVec 64)) (C (BitVec 64)) ) (BitVec 64) (bvlshr (bvlshr (bvlshr B  C ) #x0000000000000004 ) A ))
(define-fun func34  ((A (BitVec 64)) (B (BitVec 64)) (C (BitVec 64)) ) (BitVec 64) (bvlshr (bvlshr B  C ) A ))
(define-fun func35  ((A (BitVec 64)) (B (BitVec 64)) ) (BitVec 64) (bvlshr (bvlshr B  #x0000000000000010 ) A ))
(define-fun func36  ((A (BitVec 64)) (B (BitVec 64)) ) (BitVec 64) (bvlshr (bvlshr B  #x0000000000000004 ) A ))
(define-fun func37  ((A (BitVec 64)) (B (BitVec 64)) ) (BitVec 64) (bvlshr (bvlshr B  #x0000000000000001 ) A ))
(define-fun func38  ((A (BitVec 64)) (B (BitVec 64)) ) (BitVec 64) (bvlshr (bvlshr A  B ) #x0000000000000001 ))
(define-fun func39  ((A (BitVec 64)) (B (BitVec 64)) ) (BitVec 64) (bvlshr (bvlshr A  B ) #x0000000000000004 ))
(define-fun func40  ((A (BitVec 64)) (B (BitVec 64)) ) (BitVec 64) (bvlshr A  B ))
(define-fun func41  ((A (BitVec 64)) (B (BitVec 64)) (C (BitVec 64)) ) (BitVec 64) (bvlshr (bvshl B  C ) A ))
(define-fun func42  ((A (BitVec 64)) (B (BitVec 64)) ) (BitVec 64) (bvlshr (bvshl B  #x0000000000000001 ) A ))
(define-fun func43  ((A (BitVec 64)) (B (BitVec 64)) (C (BitVec 64)) ) (BitVec 64) (bvlshr (bvadd B  C ) A ))
(define-fun func44  ((A (BitVec 64)) (B (BitVec 64)) ) (BitVec 64) (bvlshr (bvnot B ) A ))
(define-fun func45  ((A (BitVec 64)) ) (BitVec 64) (bvlshr (bvnot A ) #x0000000000000010 ))
(define-fun func46  ((A (BitVec 64)) (B (BitVec 64)) (C (BitVec 64)) ) (BitVec 64) (bvor (bvlshr B  C ) A ))
(define-fun func47  ((A (BitVec 64)) ) (BitVec 64) (bvor A  #x0000000000000001 ))
(define-fun func48  ((A (BitVec 64)) (B (BitVec 64)) (C (BitVec 64)) ) (BitVec 64) (bvshl (bvlshr B  C ) A ))
(define-fun func49  ((A (BitVec 64)) (B (BitVec 64)) ) (BitVec 64) (bvshl (bvlshr B  #x0000000000000001 ) A ))
(define-fun func50  ((A (BitVec 64)) (B (BitVec 64)) ) (BitVec 64) (bvshl (bvlshr A  B ) #x0000000000000001 ))
(define-fun func52  ((A (BitVec 64)) (B (BitVec 64)) (C (BitVec 64)) ) (BitVec 64) (bvadd (bvlshr B  C ) A ))
(define-fun func53  ((A (BitVec 64)) ) (BitVec 64) (bvadd A  #x0000000000000001 ))
(define-fun func54  ((A (BitVec 64)) (B (BitVec 64)) (C (BitVec 64)) ) (BitVec 64) (bvadd (bvshl B  C ) A ))
(define-fun func55  ((A (BitVec 64)) (B (BitVec 64)) ) (BitVec 64) (bvadd (bvshl B  #x0000000000000001 ) A ))
(define-fun func56  ((A (BitVec 64)) ) (BitVec 64) (bvnot (bvshl A  #x0000000000000001 )))
(synth-fun f ( (x (BitVec 64))) (BitVec 64)
(
(Start (BitVec 64) (
   #x0000000000000000
   #x0000000000000001
   x
   (func23 Start Start Start Start)
   (func26 Start Start)
   (func27 Start Start)
   (func28 Start Start)
   (func29 Start)
   (func30 Start Start Start Start)
   (func31 Start Start Start)
   (func33 Start Start Start)
   (func37 Start Start)
   (func40 Start Start)
   (func41 Start Start Start)
   (func43 Start Start Start)
   (func44 Start Start)
   (func46 Start Start Start)
   (func47 Start)
   (func49 Start Start)
   (func52 Start Start Start)
   (func55 Start Start)
   (shr4 Start)
   (bvand Start Start)
   (bvxor Start Start)
   (bvadd Start Start)
   (if0 Start Start Start)
))
))
(constraint (= (f #xc160fadf15bba4d9) #x0000c160fadf15bb))
(constraint (= (f #xfa880af4bd986219) #x0000fa880af4bd98))
(constraint (= (f #xafc1504171d1d9ae) #x0000afc1504171d1))
(constraint (= (f #xd89fb9b7b849ec72) #x0000d89fb9b7b849))
(constraint (= (f #xae236e8de5c710a1) #x0000ae236e8de5c7))
(constraint (= (f #x4d47bb516f2480b9) #x00004d47bb516f24))
(constraint (= (f #xce6b9ba81f774876) #x0000ce6b9ba81f77))
(constraint (= (f #xf3b569074fa32bd2) #x0000f3b569074fa3))
(constraint (= (f #xda441c0d1ad7cad4) #x0000da441c0d1ad7))
(constraint (= (f #x698001f783bcc260) #x0000698001f783bc))
(constraint (= (f #xffffffffffffffff) #x00007fffffffffff))
(constraint (= (f #xfffffffffffffffe) #x0000ffffffffffff))
(constraint (= (f #xa873c1413d13f651) #x0000a873c1413d13))
(constraint (= (f #xd4fb8b6f1d89c08e) #x0000d4fb8b6f1d89))
(constraint (= (f #x1cec50ff5bbe42c8) #x00001cec50ff5bbe))
(constraint (= (f #x34d231b112ac1b86) #x000034d231b112ac))
(constraint (= (f #x23a435ebe63aa6c6) #x000023a435ebe63a))
(constraint (= (f #x4a006f152e6e015d) #x00004a006f152e6e))
(constraint (= (f #x0da59fdf2b408916) #x00000da59fdf2b40))
(constraint (= (f #xcd0f942177f13723) #x0000cd0f942177f1))
(constraint (= (f #x674c15ca8eded994) #x0000674c15ca8ede))
(constraint (= (f #xfe236a95d116965c) #x0000fe236a95d116))
(constraint (= (f #xffffffffffffffff) #x00007fffffffffff))
(constraint (= (f #x7fffffffffffffff) #x00007fffffffffff))
(constraint (= (f #xfffffffffffffffe) #x0000ffffffffffff))
(check-synth)
