experiments/eusolverbv/0/DirectTrainGenes/1001111110100010011011011010100101110101001/208_.out
(define-fun f ((x (BitVec 64))) (BitVec 64)
     (if0 (func55 x #x0000000000000001) (func26 x (func37 #x0000000000000000 x)) (func26 (func44 #x0000000000000000 #x0000000000000000) x)))
0.6702163498848677
